NAME : single
TYPE : ATSP
DIMENSION : 13
EDGE_WEIGHT_TYPE : EXPLICIT
EDGE_WEIGHT_FORMAT : FULL_MATRIX
EDGE_WEIGHT_SECTION
0 1046 1205 1171 1140 1175 835 869 588 586 213 581 253 
0 0 169 139 230 249 481 403 453 544 50000 453 881 
0 169 0 116 212 268 472 362 586 715 50000 50000 50000 
0 139 116 0 95 215 462 344 653 719 919 50000 50000 
0 230 212 95 0 119 413 303 616 50000 885 50000 50000 
0 249 268 215 119 0 450 351 50000 752 50000 662 50000 
0 481 472 462 413 450 0 196 272 347 50000 290 50000 
0 403 362 344 303 351 196 0 264 329 50000 274 50000 
0 453 586 653 616 50000 272 264 0 110 50000 87 50000 
0 544 715 719 50000 752 347 329 110 0 334 91 50000 
0 50000 50000 919 885 50000 50000 50000 50000 334 0 302 132 
0 453 50000 50000 50000 662 290 274 87 91 302 0 356 
0 881 50000 50000 50000 50000 50000 50000 50000 50000 132 356 0 
EOF